12046
1 0 1 0 0 1 0 0 1 0 0 0 0 1 1 0 0 1 0 1 1 0 1 0 1 1 0 0 1 0 
20 25 13 2 20 5 2 24 14 17 22 8 8 20 17 14 14 17 5 0 2 0 5 17 5 8 19 24 5 24 5 25 13 25 20 20 24 24 0 14 0 14 24 8 24 14 0 13 25 8 5 14 14 5 13 20 17 25 0 14 0 5 20 0 0 25 22 0 5 22 20 20 5 17 24 8 22 20 14 24 20 0 13 17 17 17 17 0 20 5 2 24 17 0 17 5 2 2 25 13 8 17 17 25 2 25 17 0 14 28 14 14 2 0 25 25 24 24 24 24 5 8 25 13 8 0 5 24 0 25 0 0 24 5 8 14 17 5 20 17 0 8 20 14 8 25 25 5 2 5 
